53841
1 27 4123
27 31 4460
31 25 299
25 11 545
11 45 436
45 52 722
52 15 631
15 36 679
36 46 402
46 39 214
39 16 451
16 2 929
2 14 433
14 12 816
12 9 723
9 34 835
34 53 396
53 10 819
10 22 117
22 29 544
29 21 516
21 23 176
23 17 619
17 48 415
48 19 897
19 41 1369
41 32 362
32 44 676
44 8 383
8 38 368
38 50 1180
50 20 763
20 24 740
24 35 296
35 5 323
5 37 467
37 7 517
7 40 1176
40 51 1042
51 13 644
13 43 790
43 3 1096
3 6 385
6 28 404
28 55 487
55 49 711
49 26 560
26 54 967
54 47 491
47 30 944
30 4 380
4 18 606
18 42 2089
42 33 4807
33 1 7621
